peakDumbCharging = 29600; 
Machine = anon_enum(16); 
machineSpeed = [3700,3700,3700,3700,3700,3700,3700,3700,3700,3700,3700,3700,3700,3700,3700,3700]; 
machineLoad = [3700,3700,3700,3700,3700,3700,3700,3700,3700,3700,3700,3700,3700,3700,3700,3700]; 
Car = anon_enum(39); 
demandCar = [3000,18960,8480,13600,5320,13360,11160,7280,8920,4920,10600,2800,4840,6880,9760,14800,1680,7640,4200,10520,8320,19400,14440,21360,2480,19880,5320,1480,10720,5760,8680,5200,5480,8880,36440,32360,3960,35040,14920]; 
arrivalCar = [78,76,76,73,72,71,71,71,71,68,67,66,66,65,65,65,64,64,62,62,62,59,57,57,57,56,55,55,52,45,44,43,42,39,35,32,31,31,29]; 
departureCar = [81,84,81,80,74,79,75,74,75,76,71,69,69,68,71,71,66,69,64,69,65,71,63,66,59,70,58,57,56,50,47,47,46,47,63,52,34,50,39]; 
